000 000 000 000 000 000 000 000 -99 -99 -99 -99 -99 000 000 -99 000 -99 -99 000 000 000 -99 -99 000 000 -99 -99 -99 -99 -99
000 000 000 000 000 000 000 000 -99 -99 -99 -99 -99 000 000 000 -99 -99 -99 000 000 000 000 000 000 000 000 -99 -99 -99 -99
000 000 000 000 000 000 000 -99 -99 -99 -99 -99 -99 -99 000 000 -99 -99 -99 -99 000 -99 000 000 000 000 000 000 -99 -99 -99
000 000 000 000 000 000 000 000 000 -99 -99 -99 -99 -99 -99 000 -99 -99 -99 -99 -99 -99 000 000 000 000 000 000 -99 -99 -99
000 000 000 000 000 000 000 000 000 -99 -99 000 000 -99 -99 -99 -99 -99 -99 -99 000 000 000 000 000 000 000 000 -99 -99 -99
000 000 000 000 000 000 000 000 000 000 -99 000 000 -99 -99 -99 -99 -99 -99 -99 000 000 000 000 000 000 -99 -99 -99 -99 -99
000 000 000 000 000 000 000 000 000 000 -99 000 000 000 -99 -99 -99 -99 -99 -99 000 000 000 000 000 000 -99 -99 -99 -99 -99
000 000 000 000 000 000 000 000 000 000 000 -99 -99 -99 -99 000 000 000 -99 -99 000 000 000 000 000 -99 -99 -99 -99 -99 -99
000 000 000 000 000 000 000 000 000 000 000 000 -99 -99 -99 000 -99 000 000 000 000 -99 -99 -99 000 -99 -99 -99 -99 -99 -99
000 000 000 000 000 000 000 000 000 000 000 000 000 -99 000 000 000 000 000 000 000 -99 -99 -99 000 -99 -99 -99 -99 000 000
000 000 000 000 000 000 -99 000 000 000 000 000 000 000 000 000 000 000 000 000 000 000 -99 -99 -99 -99 -99 -99 000 000 000
000 000 000 000 000 000 000 000 000 000 000 000 000 000 000 000 000 000 000 000 -99 000 -99 -99 -99 -99 000 000 000 000 000
000 000 000 000 000 000 000 000 000 000 000 000 000 000 -99 000 000 000 000 -99 -99 -99 -99 -99 -99 -99 000 -99 -99 000 000
000 000 000 000 000 000 000 000 000 -99 -99 000 000 000 000 000 000 000 000 000 000 -99 -99 000 000 000 000 000 -99 -99 000
000 000 000 000 000 000 000 000 000 -99 -99 000 000 000 000 000 000 000 -99 -99 -99 -99 -99 000 000 000 000 000 000 -99 -99
000 000 000 000 000 000 000 000 000 000 -99 -99 000 000 000 000 000 000 000 -99 -99 000 -99 000 000 000 000 000 000 000 -99
000 000 000 000 000 -99 000 000 000 000 000 000 000 000 000 000 000 000 000 -99 -99 -99 000 -99 000 000 000 000 000 000 000
000 000 000 000 000 -99 000 000 000 000 000 000 000 000 000 000 000 000 000 000 -99 000 000 -99 -99 -99 000 000 -99 000 -99
001 000 000 000 000 -99 000 000 000 000 000 001 000 000 001 000 000 000 000 000 000 000 000 -99 -99 -99 000 -99 -99 -99 000
001 000 000 000 000 000 000 000 000 000 000 002 002 002 001 001 001 001 000 000 000 000 000 -99 -99 -99 -99 -99 -99 -99 -99
001 000 000 000 000 000 -99 -99 -99 000 000 001 001 001 002 002 001 002 000 000 000 000 000 -99 -99 -99 -99 -99 -99 -99 -99
002 000 000 000 000 000 -99 000 000 000 000 001 001 001 002 003 002 003 001 000 000 000 000 -99 -99 -99 -99 -99 -99 -99 -99
001 002 000 000 000 000 000 000 000 000 000 001 001 000 001 002 002 002 001 001 000 000 000 -99 -99 -99 -99 -99 -99 -99 -99
001 002 002 001 001 000 000 000 000 000 001 001 000 000 001 001 002 001 001 001 001 000 000 -99 -99 -99 -99 -99 -99 -99 -99
001 001 001 001 001 000 000 000 000 000 000 000 000 000 000 000 001 001 001 001 001 001 001 -99 -99 -99 -99 -99 -99 -99 -99
000 000 000 000 000 000 000 000 000 000 000 000 000 000 000 000 000 000 000 000 000 001 000 -99 -99 -99 -99 -99 -99 -99 000
000 000 000 001 000 000 000 000 000 000 000 000 000 000 000 000 000 000 000 000 000 000 000 -99 -99 -99 -99 -99 -99 -99 -99
000 000 000 000 000 000 000 000 000 000 000 000 000 000 000 000 000 000 000 000 000 000 000 -99 -99 -99 -99 -99 -99 -99 000
000 000 000 000 000 000 000 000 000 000 -99 000 000 000 000 000 000 000 000 000 000 000 -99 -99 -99 -99 -99 -99 -99 -99 000
000 000 000 000 000 000 000 000 000 000 -99 -99 -99 000 000 000 000 000 000 -99 000 000 -99 -99 -99 -99 -99 -99 -99 -99 -99
000 000 000 000 000 000 000 000 000 000 000 -99 -99 000 000 000 000 000 000 000 000 000 -99 -99 -99 -99 -99 -99 -99 -99 -99
000 000 000 000 000 000 000 000 000 000 000 -99 -99 000 000 -99 -99 000 000 000 -99 000 -99 -99 000 000 -99 -99 -99 -99 -99
000 000 000 000 000 000 000 000 000 000 000 -99 -99 000 000 -99 000 -99 -99 -99 -99 -99 -99 -99 000 000 -99 -99 000 -99 000
000 000 000 000 000 000 000 000 000 000 -99 -99 -99 000 000 000 000 -99 -99 000 000 000 -99 -99 000 000 000 000 000 000 000
000 000 000 000 000 000 000 000 000 000 -99 -99 -99 000 000 000 000 -99 -99 000 000 -99 000 -99 000 000 000 000 000 000 000
000 000 000 000 000 000 000 000 000 000 -99 000 000 000 000 000 000 -99 000 000 000 000 000 -99 000 000 000 000 000 000 000
000 000 000 000 000 000 000 000 000 000 000 000 000 000 000 000 000 000 000 000 000 000 000 -99 000 000 000 000 000 000 000
000 000 000 000 000 000 000 000 000 000 000 000 000 000 000 000 000 000 000 000 000 -99 -99 000 000 000 000 000 000 000 000
000 000 -99 000 000 000 000 000 000 000 000 000 000 000 000 000 000 000 000 -99 000 -99 -99 000 000 000 000 000 000 000 -99
000 000 000 000 000 000 000 000 000 000 000 000 000 000 000 000 000 000 000 000 -99 -99 -99 000 000 000 000 -99 000 000 -99
-99 000 000 000 000 000 000 000 000 000 000 000 000 000 000 000 000 000 000 000 000 000 000 000 000 000 000 -99 -99 000 -99
000 000 000 000 000 000 000 000 000 000 000 000 000 000 000 000 000 000 000 000 000 000 000 000 000 000 -99 -99 -99 000 -99
000 000 -99 -99 -99 000 000 000 000 000 000 000 000 000 000 000 000 000 000 000 000 000 000 000 000 000 -99 -99 -99 -99 -99
000 -99 -99 -99 -99 000 000 -99 000 000 000 000 000 000 000 000 000 000 000 000 000 001 000 000 000 000 -99 -99 -99 -99 -99
000 000 -99 -99 -99 -99 -99 -99 -99 000 000 000 000 000 000 000 000 000 000 000 000 002 000 000 000 -99 -99 -99 -99 -99 -99
000 -99 -99 -99 -99 -99 -99 -99 -99 000 000 000 001 001 000 000 000 000 000 000 000 000 000 000 000 -99 -99 -99 -99 -99 -99
000 -99 -99 -99 -99 -99 -99 -99 -99 000 000 000 000 000 000 000 -99 000 000 000 000 000 000 000 000 000 000 -99 -99 -99 -99
-99 -99 -99 -99 -99 -99 -99 -99 -99 000 000 000 000 000 000 000 -99 000 000 000 000 000 000 001 000 000 -99 -99 -99 -99 -99
-99 -99 -99 -99 -99 -99 -99 -99 000 -99 -99 000 000 000 000 -99 000 000 000 000 000 000 001 002 000 000 000 000 -99 -99 -99
-99 -99 -99 -99 -99 -99 -99 -99 -99 000 -99 000 000 000 -99 -99 000 000 000 000 000 000 001 001 001 003 000 000 000 -99 -99
-99 -99 -99 -99 -99 -99 -99 -99 000 000 -99 -99 000 -99 -99 000 000 000 000 000 000 000 000 001 003 002 000 000 000 000 -99
-99 -99 -99 -99 -99 -99 -99 000 000 -99 000 -99 -99 -99 -99 000 000 000 000 000 000 000 000 000 001 000 000 000 000 000 -99
-99 -99 -99 -99 -99 -99 -99 -99 000 000 000 000 -99 -99 000 000 000 000 000 000 000 -99 000 000 001 000 000 000 000 000 -99
-99 -99 -99 -99 -99 -99 -99 -99 000 000 000 000 -99 000 000 000 000 000 000 000 000 -99 -99 000 000 000 000 000 000 000 -99
-99 -99 -99 -99 -99 -99 -99 000 000 000 000 000 -99 000 000 000 000 000 000 000 000 -99 000 000 -99 -99 000 000 000 -99 000
